
******************************************************************************
This program contains Ipopt, a library for large-scale nonlinear optimization.
 Ipopt is released as open source code under the Eclipse Public License (EPL).
         For more information visit http://projects.coin-or.org/Ipopt

This version of Ipopt was compiled from source code available at
    https://github.com/IDAES/Ipopt as part of the Institute for the Design of
    Advanced Energy Systems Process Systems Engineering Framework (IDAES PSE
    Framework) Copyright (c) 2018-2019. See https://github.com/IDAES/idaes-pse.

This version of Ipopt was compiled using HSL, a collection of Fortran codes
    for large-scale scientific computation.  All technical papers, sales and
    publicity material resulting from use of the HSL codes within IPOPT must
    contain the following acknowledgement:
        HSL, a collection of Fortran codes for large-scale scientific
        computation. See http://www.hsl.rl.ac.uk.
******************************************************************************

This is Ipopt version 3.13.2, running with linear solver ma27.

Number of nonzeros in equality constraint Jacobian...:      808
Number of nonzeros in inequality constraint Jacobian.:        0
Number of nonzeros in Lagrangian Hessian.............:      702

Total number of variables............................:      351
                     variables with only lower bounds:      108
                variables with lower and upper bounds:      189
                     variables with only upper bounds:        0
Total number of equality constraints.................:      350
Total number of inequality constraints...............:        0
        inequality constraints with only lower bounds:        0
   inequality constraints with lower and upper bounds:        0
        inequality constraints with only upper bounds:        0

iter    objective    inf_pr   inf_du lg(mu)  ||d||  lg(rg) alpha_du alpha_pr  ls
   0  0.0000000e+00 8.38e-01 1.42e-14  -1.0 0.00e+00    -  0.00e+00 0.00e+00   0
   1  2.0464065e+00 1.49e+00 1.03e+05  -1.0 1.27e+05    -  5.31e-01 7.66e-01h  1
   2  2.0786376e+00 1.44e+00 9.91e+04  -1.0 3.35e+04    -  8.06e-01 2.66e-02h  1
   3  2.2039605e+00 1.30e+00 9.09e+04  -1.0 1.63e+05    -  8.25e-01 8.50e-02h  1
   4  5.1238345e+00 2.07e-01 4.06e+04  -1.0 1.52e+05    -  6.62e-01 5.40e-01h  1
   5  7.8958576e+00 1.01e-01 2.03e+04  -1.0 7.94e+04    -  5.90e-02 5.00e-01h  1
   6  1.1750988e+01 1.45e-03 9.03e+02  -1.0 4.22e+04    -  8.79e-01 9.90e-01h  1
   7  1.1943318e+01 5.40e-05 1.18e+04  -1.0 1.84e+03    -  4.26e-01 9.90e-01h  1
   8  1.1957288e+01 2.50e-06 1.67e+05  -1.0 1.33e+02    -  9.10e-01 9.90e-01h  1
   9  1.1958547e+01 2.50e-06 1.36e+08  -1.0 1.53e+03    -  6.63e-01 7.73e-03h  8
iter    objective    inf_pr   inf_du lg(mu)  ||d||  lg(rg) alpha_du alpha_pr  ls
  10  1.1959036e+01 2.49e-06 2.18e+08  -1.0 2.38e+03    -  3.89e-01 1.93e-03h 10
  11  1.1959153e+01 2.49e-06 2.94e+08  -1.0 4.56e+03    -  3.63e-01 2.42e-04h 13
  12  1.1959544e+01 2.49e-06 3.53e+08  -1.0 3.81e+03    -  2.86e-01 9.67e-04h 11
  13  1.1959863e+01 2.49e-06 4.15e+08  -1.0 6.22e+03    -  2.95e-01 4.83e-04h 12
  14  1.1960104e+01 2.49e-06 4.67e+08  -1.0 4.69e+03    -  2.47e-01 4.83e-04h 12
  15  1.1960290e+01 2.49e-06 5.23e+08  -1.0 7.25e+03    -  2.66e-01 2.42e-04h 13
  16  1.1960357e+01 2.49e-06 5.71e+08  -1.0 5.25e+03    -  2.28e-01 1.21e-04h 14
  17  1.1960762e+01 2.49e-06 6.23e+08  -1.0 7.88e+03    -  2.50e-01 4.83e-04f 12
  18  1.2090417e+01 2.05e-04 4.88e+08  -1.0 5.59e+03    -  2.18e-01 2.18e-01s 22
  19  1.2513448e+01 1.84e-03 1.83e+08  -1.0 6.26e+03    -  6.24e-01 6.24e-01s 22
iter    objective    inf_pr   inf_du lg(mu)  ||d||  lg(rg) alpha_du alpha_pr  ls
  20  1.2748166e+01 5.72e-04 1.83e+06  -1.0 2.15e+03    -  9.90e-01 9.90e-01s 22
  21  1.2758968e+01 8.31e-06 1.83e+04  -1.0 9.82e+01    -  9.90e-01 9.90e-01s 22
  22  1.1887388e+01 8.40e-03 2.20e+07  -5.7 9.70e+03    -  9.95e-01 8.28e-01f  1
  23  1.1882865e+01 2.24e-05 2.02e+08  -5.7 4.36e+01    -  7.38e-01 1.00e+00h  1
In iteration 23, 27 Slacks too small, adjusting variable bounds
  24  1.1882864e+01 1.23e-08 7.71e+08  -5.7 1.06e-02    -  1.00e+00 1.00e+00h  1
  25  1.1882864e+01 1.22e-07 2.79e-03  -5.7 2.11e-03    -  1.00e+00 1.00e+00h  1
  26  1.1882863e+01 7.66e-09 4.99e-06  -8.6 1.74e-02    -  1.00e+00 1.00e+00h  1

Number of Iterations....: 26

                                   (scaled)                 (unscaled)
Objective...............:   1.1882862520275506e+01    1.1882862520275506e+01
Dual infeasibility......:   4.9918889999389648e-06    4.9918889999389648e-06
Constraint violation....:   7.6612158839139965e-09    7.6612158839139965e-09
Complementarity.........:   2.5998710779518428e-09    2.5998710779518428e-09
Overall NLP error.......:   7.6612158839139965e-09    4.9918889999389648e-06


Number of objective function evaluations             = 184
Number of objective gradient evaluations             = 27
Number of equality constraint evaluations            = 184
Number of inequality constraint evaluations          = 0
Number of equality constraint Jacobian evaluations   = 27
Number of inequality constraint Jacobian evaluations = 0
Number of Lagrangian Hessian evaluations             = 26
Total CPU secs in IPOPT (w/o function evaluations)   =      0.060
Total CPU secs in NLP function evaluations           =      1.292

EXIT: Optimal Solution Found.
